p cnf 13 49
3 -4 -7 0
2 -5 9 0
2 4 7 0
3 -6 11 0
-4 -10 12 0
2 4 13 0
-7 9 -12 0
-10 -12 13 0
-1 -6 -10 0
3 -5 7 0
-7 11 -13 0
9 -10 13 0
3 6 7 0
-7 -9 10 0
-1 -9 -12 0
4 -5 13 0
-1 -8 9 0
-11 -12 13 0
-1 7 9 0
7 -11 13 0
3 -10 12 0
7 10 13 0
-2 8 9 0
-5 -8 -13 0
7 -9 -13 0
-2 -11 -13 0
-4 -7 -12 0
1 -9 -11 0
7 -10 -11 0
-2 8 -12 0
-4 10 13 0
-2 -4 -13 0
-1 -2 -10 0
2 5 -6 0
2 -9 12 0
1 7 -9 0
6 -12 -13 0
1 4 -9 0
6 -10 -11 0
9 11 12 0
-1 -3 -8 0
-4 5 -6 0
1 9 11 0
6 10 12 0
4 8 12 0
5 -6 -10 0
2 -5 -10 0
-8 -10 11 0
5 -9 -10 0
